# Random Circle Problem
param d := 0.05; 
param n := 10; 
param radius := 2.00; 
param v0 := 
1 4.94
2 5.92
3 5.88
4 5.75
5 5.83
6 5.44
7 5.18
8 5.02
9 5.28
10 5.30
;
param cap := 
1 3.48590
2 3.72994
3 4.43939
4 4.95682
5 5.34225
6 6.23884
7 1.10646
8 1.07269
9 1.76832
10 2.45829
;
param x0 := 
1 2.00
2 1.62
3 0.62
4 -0.62
5 -1.62
6 -2.00
7 -1.62
8 -0.62
9 0.62
10 1.62
;
param y0 := 
1 -0.00
2 1.18
3 1.90
4 1.90
5 1.18
6 0.00
7 -1.18
8 -1.90
9 -1.90
10 -1.18
;
